NAME: tsp_435
COMMENT: Random TSP instance
TYPE: TSP
DIMENSION: 50
EDGE_WEIGHT_TYPE: EUC_2D
NODE_COORD_SECTION
1 502 585
2 141 796
3 434 484
4 455 246
5 611 928
6 112 733
7 914 611
8 259 833
9 517 730
10 738 182
11 461 978
12 771 362
13 332 568
14 519 149
15 649 104
16 935 256
17 186 243
18 473 171
19 991 880
20 130 63
21 55 693
22 228 276
23 858 289
24 86 945
25 270 117
26 143 950
27 994 818
28 445 52
29 859 604
30 725 936
31 133 125
32 114 146
33 403 453
34 690 392
35 388 57
36 583 21
37 633 684
38 651 873
39 335 598
40 833 172
41 552 479
42 170 219
43 636 394
44 688 119
45 963 337
46 70 844
47 867 958
48 844 466
49 477 112
50 427 802
